p cnf 266 548
120 0
-1 120 0
1 -120 0
121 0
-2 121 0
2 -121 0
122 0
-3 122 0
3 -122 0
123 0
-4 123 0
4 -123 0
124 0
-5 124 0
5 -124 0
125 0
-6 125 0
6 -125 0
126 0
-7 126 0
7 -126 0
127 0
-8 127 0
8 -127 0
128 0
-9 128 0
9 -128 0
129 0
-10 129 0
10 -129 0
130 0
-11 130 0
11 -130 0
131 0
-12 131 0
12 -131 0
132 0
-13 132 0
13 -132 0
133 0
-14 133 0
14 -133 0
134 0
-15 134 0
15 -134 0
135 0
-16 135 0
16 -135 0
136 0
-17 136 0
17 -136 0
137 0
-18 137 0
18 -137 0
138 0
-19 138 0
19 -138 0
139 0
-20 139 0
20 -139 0
140 0
-21 140 0
21 -140 0
141 0
-22 141 0
22 -141 0
142 0
-23 142 0
23 -142 0
143 0
-24 143 0
24 -143 0
144 0
-25 144 0
25 -144 0
145 0
-26 145 0
26 -145 0
146 0
-27 146 0
27 -146 0
147 0
-28 147 0
28 -147 0
148 0
-29 148 0
29 -148 0
149 0
-30 149 0
30 -149 0
150 0
-31 150 0
31 -150 0
151 0
-32 151 0
32 -151 0
152 0
-33 152 0
33 -152 0
153 0
-34 153 0
34 -153 0
154 0
-35 154 0
35 -154 0
155 0
-36 155 0
36 -155 0
156 0
-37 156 0
37 -156 0
157 0
-38 157 0
38 -157 0
158 0
-39 158 0
39 -158 0
159 0
-40 159 0
40 -159 0
160 -72 -52 0
-160 72 0
-160 52 0
161 -118 0
-161 118 0
-42 160 161 0
42 -160 0
42 -161 0
162 -109 0
-162 109 0
163 -69 -54 0
-163 69 0
-163 54 0
-44 162 163 0
44 -162 0
44 -163 0
164 -119 0
-164 119 0
165 -73 -52 0
-165 73 0
-165 52 0
-46 164 165 0
46 -164 0
46 -165 0
166 -48 0
-166 48 0
-47 166 0
47 -166 0
167 -83 -102 0
-167 83 0
-167 102 0
168 -96 0
-168 96 0
169 -70 -97 0
-169 70 0
-169 97 0
170 -62 -98 0
-170 62 0
-170 98 0
171 -74 -95 0
-171 74 0
-171 95 0
172 -88 -104 0
-172 88 0
-172 104 0
173 -86 -103 0
-173 86 0
-173 103 0
174 -64 -91 0
-174 64 0
-174 91 0
-49 167 168 169 170 171 172 173 174 0
49 -167 0
49 -168 0
49 -169 0
49 -170 0
49 -171 0
49 -172 0
49 -173 0
49 -174 0
175 -95 0
-175 95 0
176 -79 -49 0
-176 79 0
-176 49 0
177 -84 -119 0
-177 84 0
-177 119 0
178 -89 -118 0
-178 89 0
-178 118 0
179 -65 -56 0
-179 65 0
-179 56 0
-52 175 176 177 178 179 0
52 -175 0
52 -176 0
52 -177 0
52 -178 0
52 -179 0
180 -90 -42 0
-180 90 0
-180 42 0
181 -110 0
-181 110 0
-54 180 181 0
54 -180 0
54 -181 0
182 -81 -96 0
-182 81 0
-182 96 0
183 -91 0
-183 91 0
184 -71 -97 0
-184 71 0
-184 97 0
185 -63 -98 0
-185 63 0
-185 98 0
186 -75 -95 0
-186 75 0
-186 95 0
-56 182 183 184 185 186 0
56 -182 0
56 -183 0
56 -184 0
56 -185 0
56 -186 0
187 -111 0
-187 111 0
188 -85 -46 0
-188 85 0
-188 46 0
-58 187 188 0
58 -187 0
58 -188 0
189 -59 0
-189 59 0
-60 189 0
60 -189 0
190 -55 0
-190 55 0
191 -71 -93 0
-191 71 0
-191 93 0
192 -75 -92 0
-192 75 0
-192 92 0
193 -63 -94 0
-193 63 0
-193 94 0
-91 190 191 192 193 0
91 -190 0
91 -191 0
91 -192 0
91 -193 0
194 -84 -116 0
-194 84 0
-194 116 0
195 -51 0
-195 51 0
196 -89 -117 0
-196 89 0
-196 117 0
-92 194 195 196 0
92 -194 0
92 -195 0
92 -196 0
197 -90 -101 0
-197 90 0
-197 101 0
198 -112 0
-198 112 0
-93 197 198 0
93 -197 0
93 -198 0
199 -85 -99 0
-199 85 0
-199 99 0
200 -113 0
-200 113 0
-94 199 200 0
94 -199 0
94 -200 0
201 -114 0
-201 114 0
202 -89 -104 0
-202 89 0
-202 104 0
-95 201 202 0
95 -201 0
95 -202 0
203 -70 -93 0
-203 70 0
-203 93 0
204 -86 -100 0
-204 86 0
-204 100 0
205 -83 -99 0
-205 83 0
-205 99 0
206 -88 -101 0
-206 88 0
-206 101 0
207 -50 0
-207 50 0
208 -62 -94 0
-208 62 0
-208 94 0
209 -74 -92 0
-209 74 0
-209 92 0
-96 203 204 205 206 207 208 209 0
96 -203 0
96 -204 0
96 -205 0
96 -206 0
96 -207 0
96 -208 0
96 -209 0
210 -90 -104 0
-210 90 0
-210 104 0
211 -115 0
-211 115 0
-97 210 211 0
97 -210 0
97 -211 0
212 -85 -102 0
-212 85 0
-212 102 0
213 -105 0
-213 105 0
-98 212 213 0
98 -212 0
98 -213 0
214 -116 0
-214 116 0
215 -73 -92 0
-215 73 0
-215 92 0
-99 214 215 0
99 -214 0
99 -215 0
216 -69 -93 0
-216 69 0
-216 93 0
217 -106 0
-217 106 0
-100 216 217 0
100 -216 0
100 -217 0
218 -72 -92 0
-218 72 0
-218 92 0
219 -117 0
-219 117 0
-101 218 219 0
101 -218 0
101 -219 0
220 -107 0
-220 107 0
221 -73 -95 0
-221 73 0
-221 95 0
-102 220 221 0
102 -220 0
102 -221 0
222 -69 -97 0
-222 69 0
-222 97 0
223 -108 0
-223 108 0
-103 222 223 0
103 -222 0
103 -223 0
224 -101 0
-224 101 0
225 -68 -115 0
-225 68 0
-225 115 0
226 -72 -114 0
-226 72 0
-226 114 0
227 -76 -96 0
-227 76 0
-227 96 0
-104 224 225 226 227 0
104 -224 0
104 -225 0
104 -226 0
104 -227 0
228 -67 -91 0
-228 67 0
-228 91 0
229 -94 0
-229 94 0
230 -82 -96 0
-230 82 0
-230 96 0
-105 228 229 230 0
105 -228 0
105 -229 0
105 -230 0
231 -43 0
-231 43 0
-106 231 0
106 -231 0
232 -78 -96 0
-232 78 0
-232 96 0
233 -99 0
-233 99 0
234 -61 -105 0
-234 61 0
-234 105 0
-107 232 233 234 0
107 -232 0
107 -233 0
107 -234 0
235 -100 0
-235 100 0
236 -77 -96 0
-236 77 0
-236 96 0
-108 235 236 0
108 -235 0
108 -236 0
237 -103 0
-237 103 0
238 -77 -49 0
-238 77 0
-238 49 0
-109 237 238 0
109 -237 0
109 -238 0
239 -87 -109 0
-239 87 0
-239 109 0
240 -97 0
-240 97 0
241 -66 -56 0
-241 66 0
-241 56 0
242 -80 -49 0
-242 80 0
-242 49 0
-110 239 240 241 242 0
110 -239 0
110 -240 0
110 -241 0
110 -242 0
243 -67 -56 0
-243 67 0
-243 56 0
244 -98 0
-244 98 0
245 -82 -49 0
-245 82 0
-245 49 0
-111 243 244 245 0
111 -243 0
111 -244 0
111 -245 0
246 -53 0
-246 53 0
247 -87 -106 0
-247 87 0
-247 106 0
-112 246 247 0
112 -246 0
112 -247 0
248 -57 0
-248 57 0
-113 248 0
113 -248 0
249 -92 0
-249 92 0
250 -84 -107 0
-250 84 0
-250 107 0
251 -65 -91 0
-251 65 0
-251 91 0
252 -79 -96 0
-252 79 0
-252 96 0
-114 249 250 251 252 0
114 -249 0
114 -250 0
114 -251 0
114 -252 0
253 -93 0
-253 93 0
254 -80 -96 0
-254 80 0
-254 96 0
255 -87 -108 0
-255 87 0
-255 108 0
256 -66 -91 0
-256 66 0
-256 91 0
-115 253 254 255 256 0
115 -253 0
115 -254 0
115 -255 0
115 -256 0
257 -45 0
-257 45 0
258 -61 -113 0
-258 61 0
-258 113 0
-116 257 258 0
116 -257 0
116 -258 0
259 -41 0
-259 41 0
260 -68 -112 0
-260 68 0
-260 112 0
-117 259 260 0
117 -259 0
117 -260 0
261 -104 0
-261 104 0
262 -76 -49 0
-262 76 0
-262 49 0
263 -68 -110 0
-263 68 0
-263 110 0
-118 261 262 263 0
118 -261 0
118 -262 0
118 -263 0
264 -78 -49 0
-264 78 0
-264 49 0
265 -61 -111 0
-265 61 0
-265 111 0
266 -102 0
-266 102 0
-119 264 265 266 0
119 -264 0
119 -265 0
119 -266 0
c p weight 1 1.0;1.0;1.0;1.0;1.0;1.0;1.0;1.0;1.0;1.0 0
c p weight -1 1.0;1.0;1.0;1.0;1.0;1.0;1.0;1.0;1.0;1.0 0
c p weight 2 1.0;1.0;1.0;1.0;1.0;1.0;1.0;1.0;1.0;1.0 0
c p weight -2 1.0;1.0;1.0;1.0;1.0;1.0;1.0;1.0;1.0;1.0 0
c p weight 3 1.0;1.0;1.0;1.0;1.0;1.0;1.0;1.0;1.0;1.0 0
c p weight -3 1.0;1.0;1.0;1.0;1.0;1.0;1.0;1.0;1.0;1.0 0
c p weight 4 1.0;1.0;1.0;1.0;1.0;1.0;1.0;1.0;1.0;1.0 0
c p weight -4 1.0;1.0;1.0;1.0;1.0;1.0;1.0;1.0;1.0;1.0 0
c p weight 5 1.0;1.0;1.0;1.0;1.0;1.0;1.0;1.0;1.0;1.0 0
c p weight -5 1.0;1.0;1.0;1.0;1.0;1.0;1.0;1.0;1.0;1.0 0
c p weight 6 1.0;1.0;1.0;1.0;1.0;1.0;1.0;1.0;1.0;1.0 0
c p weight -6 1.0;1.0;1.0;1.0;1.0;1.0;1.0;1.0;1.0;1.0 0
c p weight 7 1.0;1.0;1.0;1.0;1.0;1.0;1.0;1.0;1.0;1.0 0
c p weight -7 1.0;1.0;1.0;1.0;1.0;1.0;1.0;1.0;1.0;1.0 0
c p weight 8 1.0;1.0;1.0;1.0;1.0;1.0;1.0;1.0;1.0;1.0 0
c p weight -8 1.0;1.0;1.0;1.0;1.0;1.0;1.0;1.0;1.0;1.0 0
c p weight 9 1.0;1.0;1.0;1.0;1.0;1.0;1.0;1.0;1.0;1.0 0
c p weight -9 1.0;1.0;1.0;1.0;1.0;1.0;1.0;1.0;1.0;1.0 0
c p weight 10 1.0;1.0;1.0;1.0;1.0;1.0;1.0;1.0;1.0;1.0 0
c p weight -10 1.0;1.0;1.0;1.0;1.0;1.0;1.0;1.0;1.0;1.0 0
c p weight 11 1.0;1.0;1.0;1.0;1.0;1.0;1.0;1.0;1.0;1.0 0
c p weight -11 1.0;1.0;1.0;1.0;1.0;1.0;1.0;1.0;1.0;1.0 0
c p weight 12 1.0;1.0;1.0;1.0;1.0;1.0;1.0;1.0;1.0;1.0 0
c p weight -12 1.0;1.0;1.0;1.0;1.0;1.0;1.0;1.0;1.0;1.0 0
c p weight 13 1.0;1.0;1.0;1.0;1.0;1.0;1.0;1.0;1.0;1.0 0
c p weight -13 1.0;1.0;1.0;1.0;1.0;1.0;1.0;1.0;1.0;1.0 0
c p weight 14 1.0;1.0;1.0;1.0;1.0;1.0;1.0;1.0;1.0;1.0 0
c p weight -14 1.0;1.0;1.0;1.0;1.0;1.0;1.0;1.0;1.0;1.0 0
c p weight 15 1.0;1.0;1.0;1.0;1.0;1.0;1.0;1.0;1.0;1.0 0
c p weight -15 1.0;1.0;1.0;1.0;1.0;1.0;1.0;1.0;1.0;1.0 0
c p weight 16 1.0;1.0;1.0;1.0;1.0;1.0;1.0;1.0;1.0;1.0 0
c p weight -16 1.0;1.0;1.0;1.0;1.0;1.0;1.0;1.0;1.0;1.0 0
c p weight 17 1.0;1.0;1.0;1.0;1.0;1.0;1.0;1.0;1.0;1.0 0
c p weight -17 1.0;1.0;1.0;1.0;1.0;1.0;1.0;1.0;1.0;1.0 0
c p weight 18 1.0;1.0;1.0;1.0;1.0;1.0;1.0;1.0;1.0;1.0 0
c p weight -18 1.0;1.0;1.0;1.0;1.0;1.0;1.0;1.0;1.0;1.0 0
c p weight 19 1.0;1.0;1.0;1.0;1.0;1.0;1.0;1.0;1.0;1.0 0
c p weight -19 1.0;1.0;1.0;1.0;1.0;1.0;1.0;1.0;1.0;1.0 0
c p weight 20 1.0;1.0;1.0;1.0;1.0;1.0;1.0;1.0;1.0;1.0 0
c p weight -20 1.0;1.0;1.0;1.0;1.0;1.0;1.0;1.0;1.0;1.0 0
c p weight 21 1.0;1.0;1.0;1.0;1.0;1.0;1.0;1.0;1.0;1.0 0
c p weight -21 1.0;1.0;1.0;1.0;1.0;1.0;1.0;1.0;1.0;1.0 0
c p weight 22 1.0;1.0;1.0;1.0;1.0;1.0;1.0;1.0;1.0;1.0 0
c p weight -22 1.0;1.0;1.0;1.0;1.0;1.0;1.0;1.0;1.0;1.0 0
c p weight 23 1.0;1.0;1.0;1.0;1.0;1.0;1.0;1.0;1.0;1.0 0
c p weight -23 1.0;1.0;1.0;1.0;1.0;1.0;1.0;1.0;1.0;1.0 0
c p weight 24 1.0;1.0;1.0;1.0;1.0;1.0;1.0;1.0;1.0;1.0 0
c p weight -24 1.0;1.0;1.0;1.0;1.0;1.0;1.0;1.0;1.0;1.0 0
c p weight 25 1.0;1.0;1.0;1.0;1.0;1.0;1.0;1.0;1.0;1.0 0
c p weight -25 1.0;1.0;1.0;1.0;1.0;1.0;1.0;1.0;1.0;1.0 0
c p weight 26 1.0;1.0;1.0;1.0;1.0;1.0;1.0;1.0;1.0;1.0 0
c p weight -26 1.0;1.0;1.0;1.0;1.0;1.0;1.0;1.0;1.0;1.0 0
c p weight 27 1.0;1.0;1.0;1.0;1.0;1.0;1.0;1.0;1.0;1.0 0
c p weight -27 1.0;1.0;1.0;1.0;1.0;1.0;1.0;1.0;1.0;1.0 0
c p weight 28 1.0;1.0;1.0;1.0;1.0;1.0;1.0;1.0;1.0;1.0 0
c p weight -28 1.0;1.0;1.0;1.0;1.0;1.0;1.0;1.0;1.0;1.0 0
c p weight 29 1.0;1.0;1.0;1.0;1.0;1.0;1.0;1.0;1.0;1.0 0
c p weight -29 1.0;1.0;1.0;1.0;1.0;1.0;1.0;1.0;1.0;1.0 0
c p weight 30 1.0;1.0;1.0;1.0;1.0;1.0;1.0;1.0;1.0;1.0 0
c p weight -30 1.0;1.0;1.0;1.0;1.0;1.0;1.0;1.0;1.0;1.0 0
c p weight 31 1.0;1.0;1.0;1.0;1.0;1.0;1.0;1.0;1.0;1.0 0
c p weight -31 1.0;1.0;1.0;1.0;1.0;1.0;1.0;1.0;1.0;1.0 0
c p weight 32 1.0;1.0;1.0;1.0;1.0;1.0;1.0;1.0;1.0;1.0 0
c p weight -32 1.0;1.0;1.0;1.0;1.0;1.0;1.0;1.0;1.0;1.0 0
c p weight 33 1.0;1.0;1.0;1.0;1.0;1.0;1.0;1.0;1.0;1.0 0
c p weight -33 1.0;1.0;1.0;1.0;1.0;1.0;1.0;1.0;1.0;1.0 0
c p weight 34 1.0;1.0;1.0;1.0;1.0;1.0;1.0;1.0;1.0;1.0 0
c p weight -34 1.0;1.0;1.0;1.0;1.0;1.0;1.0;1.0;1.0;1.0 0
c p weight 35 1.0;1.0;1.0;1.0;1.0;1.0;1.0;1.0;1.0;1.0 0
c p weight -35 1.0;1.0;1.0;1.0;1.0;1.0;1.0;1.0;1.0;1.0 0
c p weight 36 1.0;1.0;1.0;1.0;1.0;1.0;1.0;1.0;1.0;1.0 0
c p weight -36 1.0;1.0;1.0;1.0;1.0;1.0;1.0;1.0;1.0;1.0 0
c p weight 37 1.0;1.0;1.0;1.0;1.0;1.0;1.0;1.0;1.0;1.0 0
c p weight -37 1.0;1.0;1.0;1.0;1.0;1.0;1.0;1.0;1.0;1.0 0
c p weight 38 1.0;1.0;1.0;1.0;1.0;1.0;1.0;1.0;1.0;1.0 0
c p weight -38 1.0;1.0;1.0;1.0;1.0;1.0;1.0;1.0;1.0;1.0 0
c p weight 39 1.0;1.0;1.0;1.0;1.0;1.0;1.0;1.0;1.0;1.0 0
c p weight -39 1.0;1.0;1.0;1.0;1.0;1.0;1.0;1.0;1.0;1.0 0
c p weight 40 1.0;1.0;1.0;1.0;1.0;1.0;1.0;1.0;1.0;1.0 0
c p weight -40 1.0;1.0;1.0;1.0;1.0;1.0;1.0;1.0;1.0;1.0 0
c p weight 41 0.5;0.5;0.5;0.5;0.5;0.5;0.5;0.5;0.5;0.5 0
c p weight -41 0.5;0.5;0.5;0.5;0.5;0.5;0.5;0.5;0.5;0.5 0
c p weight 42 1.0;1.0;1.0;1.0;1.0;1.0;1.0;1.0;1.0;1.0 0
c p weight -42 0.0;1.0;1.0;1.0;1.0;1.0;1.0;1.0;1.0;1.0 0
c p weight 43 0.5;0.5;0.5;0.5;0.5;0.5;0.5;0.5;0.5;0.5 0
c p weight -43 0.5;0.5;0.5;0.5;0.5;0.5;0.5;0.5;0.5;0.5 0
c p weight 44 1.0;1.0;1.0;1.0;1.0;1.0;1.0;1.0;1.0;1.0 0
c p weight -44 1.0;0.0;1.0;1.0;1.0;1.0;1.0;1.0;1.0;1.0 0
c p weight 45 0.5;0.5;0.5;0.5;0.5;0.5;0.5;0.5;0.5;0.5 0
c p weight -45 0.5;0.5;0.5;0.5;0.5;0.5;0.5;0.5;0.5;0.5 0
c p weight 46 1.0;1.0;1.0;1.0;1.0;1.0;1.0;1.0;1.0;1.0 0
c p weight -46 1.0;1.0;0.0;1.0;1.0;1.0;1.0;1.0;1.0;1.0 0
c p weight 47 1.0;1.0;1.0;1.0;1.0;1.0;1.0;1.0;1.0;1.0 0
c p weight -47 1.0;1.0;1.0;0.0;1.0;1.0;1.0;1.0;1.0;1.0 0
c p weight 48 0.5;0.5;0.5;0.5;0.5;0.5;0.5;0.5;0.5;0.5 0
c p weight -48 0.5;0.5;0.5;0.5;0.5;0.5;0.5;0.5;0.5;0.5 0
c p weight 49 1.0;1.0;1.0;1.0;1.0;1.0;1.0;1.0;1.0;1.0 0
c p weight -49 1.0;1.0;1.0;1.0;0.0;1.0;1.0;1.0;1.0;1.0 0
c p weight 50 0.5;0.5;0.5;0.5;0.5;0.5;0.5;0.5;0.5;0.5 0
c p weight -50 0.5;0.5;0.5;0.5;0.5;0.5;0.5;0.5;0.5;0.5 0
c p weight 51 0.5;0.5;0.5;0.5;0.5;0.5;0.5;0.5;0.5;0.5 0
c p weight -51 0.5;0.5;0.5;0.5;0.5;0.5;0.5;0.5;0.5;0.5 0
c p weight 52 1.0;1.0;1.0;1.0;1.0;1.0;1.0;1.0;1.0;1.0 0
c p weight -52 1.0;1.0;1.0;1.0;1.0;0.0;1.0;1.0;1.0;1.0 0
c p weight 53 0.5;0.5;0.5;0.5;0.5;0.5;0.5;0.5;0.5;0.5 0
c p weight -53 0.5;0.5;0.5;0.5;0.5;0.5;0.5;0.5;0.5;0.5 0
c p weight 54 1.0;1.0;1.0;1.0;1.0;1.0;1.0;1.0;1.0;1.0 0
c p weight -54 1.0;1.0;1.0;1.0;1.0;1.0;0.0;1.0;1.0;1.0 0
c p weight 55 0.5;0.5;0.5;0.5;0.5;0.5;0.5;0.5;0.5;0.5 0
c p weight -55 0.5;0.5;0.5;0.5;0.5;0.5;0.5;0.5;0.5;0.5 0
c p weight 56 1.0;1.0;1.0;1.0;1.0;1.0;1.0;1.0;1.0;1.0 0
c p weight -56 1.0;1.0;1.0;1.0;1.0;1.0;1.0;0.0;1.0;1.0 0
c p weight 57 0.5;0.5;0.5;0.5;0.5;0.5;0.5;0.5;0.5;0.5 0
c p weight -57 0.5;0.5;0.5;0.5;0.5;0.5;0.5;0.5;0.5;0.5 0
c p weight 58 1.0;1.0;1.0;1.0;1.0;1.0;1.0;1.0;1.0;1.0 0
c p weight -58 1.0;1.0;1.0;1.0;1.0;1.0;1.0;1.0;0.0;1.0 0
c p weight 59 0.5;0.5;0.5;0.5;0.5;0.5;0.5;0.5;0.5;0.5 0
c p weight -59 0.5;0.5;0.5;0.5;0.5;0.5;0.5;0.5;0.5;0.5 0
c p weight 60 1.0;1.0;1.0;1.0;1.0;1.0;1.0;1.0;1.0;1.0 0
c p weight -60 1.0;1.0;1.0;1.0;1.0;1.0;1.0;1.0;1.0;0.0 0
c p weight 61 0.5;0.5;0.5;0.5;0.5;0.5;0.5;0.5;0.5;0.5 0
c p weight -61 0.5;0.5;0.5;0.5;0.5;0.5;0.5;0.5;0.5;0.5 0
c p weight 62 0.5;0.5;0.5;0.5;0.5;0.5;0.5;0.5;0.5;0.5 0
c p weight -62 0.5;0.5;0.5;0.5;0.5;0.5;0.5;0.5;0.5;0.5 0
c p weight 63 0.5;0.5;0.5;0.5;0.5;0.5;0.5;0.5;0.5;0.5 0
c p weight -63 0.5;0.5;0.5;0.5;0.5;0.5;0.5;0.5;0.5;0.5 0
c p weight 64 0.5;0.5;0.5;0.5;0.5;0.5;0.5;0.5;0.5;0.5 0
c p weight -64 0.5;0.5;0.5;0.5;0.5;0.5;0.5;0.5;0.5;0.5 0
c p weight 65 0.5;0.5;0.5;0.5;0.5;0.5;0.5;0.5;0.5;0.5 0
c p weight -65 0.5;0.5;0.5;0.5;0.5;0.5;0.5;0.5;0.5;0.5 0
c p weight 66 0.5;0.5;0.5;0.5;0.5;0.5;0.5;0.5;0.5;0.5 0
c p weight -66 0.5;0.5;0.5;0.5;0.5;0.5;0.5;0.5;0.5;0.5 0
c p weight 67 0.5;0.5;0.5;0.5;0.5;0.5;0.5;0.5;0.5;0.5 0
c p weight -67 0.5;0.5;0.5;0.5;0.5;0.5;0.5;0.5;0.5;0.5 0
c p weight 68 0.5;0.5;0.5;0.5;0.5;0.5;0.5;0.5;0.5;0.5 0
c p weight -68 0.5;0.5;0.5;0.5;0.5;0.5;0.5;0.5;0.5;0.5 0
c p weight 69 0.5;0.5;0.5;0.5;0.5;0.5;0.5;0.5;0.5;0.5 0
c p weight -69 0.5;0.5;0.5;0.5;0.5;0.5;0.5;0.5;0.5;0.5 0
c p weight 70 0.5;0.5;0.5;0.5;0.5;0.5;0.5;0.5;0.5;0.5 0
c p weight -70 0.5;0.5;0.5;0.5;0.5;0.5;0.5;0.5;0.5;0.5 0
c p weight 71 0.5;0.5;0.5;0.5;0.5;0.5;0.5;0.5;0.5;0.5 0
c p weight -71 0.5;0.5;0.5;0.5;0.5;0.5;0.5;0.5;0.5;0.5 0
c p weight 72 0.5;0.5;0.5;0.5;0.5;0.5;0.5;0.5;0.5;0.5 0
c p weight -72 0.5;0.5;0.5;0.5;0.5;0.5;0.5;0.5;0.5;0.5 0
c p weight 73 0.5;0.5;0.5;0.5;0.5;0.5;0.5;0.5;0.5;0.5 0
c p weight -73 0.5;0.5;0.5;0.5;0.5;0.5;0.5;0.5;0.5;0.5 0
c p weight 74 0.5;0.5;0.5;0.5;0.5;0.5;0.5;0.5;0.5;0.5 0
c p weight -74 0.5;0.5;0.5;0.5;0.5;0.5;0.5;0.5;0.5;0.5 0
c p weight 75 0.5;0.5;0.5;0.5;0.5;0.5;0.5;0.5;0.5;0.5 0
c p weight -75 0.5;0.5;0.5;0.5;0.5;0.5;0.5;0.5;0.5;0.5 0
c p weight 76 0.5;0.5;0.5;0.5;0.5;0.5;0.5;0.5;0.5;0.5 0
c p weight -76 0.5;0.5;0.5;0.5;0.5;0.5;0.5;0.5;0.5;0.5 0
c p weight 77 0.5;0.5;0.5;0.5;0.5;0.5;0.5;0.5;0.5;0.5 0
c p weight -77 0.5;0.5;0.5;0.5;0.5;0.5;0.5;0.5;0.5;0.5 0
c p weight 78 0.5;0.5;0.5;0.5;0.5;0.5;0.5;0.5;0.5;0.5 0
c p weight -78 0.5;0.5;0.5;0.5;0.5;0.5;0.5;0.5;0.5;0.5 0
c p weight 79 0.5;0.5;0.5;0.5;0.5;0.5;0.5;0.5;0.5;0.5 0
c p weight -79 0.5;0.5;0.5;0.5;0.5;0.5;0.5;0.5;0.5;0.5 0
c p weight 80 0.5;0.5;0.5;0.5;0.5;0.5;0.5;0.5;0.5;0.5 0
c p weight -80 0.5;0.5;0.5;0.5;0.5;0.5;0.5;0.5;0.5;0.5 0
c p weight 81 0.5;0.5;0.5;0.5;0.5;0.5;0.5;0.5;0.5;0.5 0
c p weight -81 0.5;0.5;0.5;0.5;0.5;0.5;0.5;0.5;0.5;0.5 0
c p weight 82 0.5;0.5;0.5;0.5;0.5;0.5;0.5;0.5;0.5;0.5 0
c p weight -82 0.5;0.5;0.5;0.5;0.5;0.5;0.5;0.5;0.5;0.5 0
c p weight 83 0.5;0.5;0.5;0.5;0.5;0.5;0.5;0.5;0.5;0.5 0
c p weight -83 0.5;0.5;0.5;0.5;0.5;0.5;0.5;0.5;0.5;0.5 0
c p weight 84 0.5;0.5;0.5;0.5;0.5;0.5;0.5;0.5;0.5;0.5 0
c p weight -84 0.5;0.5;0.5;0.5;0.5;0.5;0.5;0.5;0.5;0.5 0
c p weight 85 0.5;0.5;0.5;0.5;0.5;0.5;0.5;0.5;0.5;0.5 0
c p weight -85 0.5;0.5;0.5;0.5;0.5;0.5;0.5;0.5;0.5;0.5 0
c p weight 86 0.5;0.5;0.5;0.5;0.5;0.5;0.5;0.5;0.5;0.5 0
c p weight -86 0.5;0.5;0.5;0.5;0.5;0.5;0.5;0.5;0.5;0.5 0
c p weight 87 0.5;0.5;0.5;0.5;0.5;0.5;0.5;0.5;0.5;0.5 0
c p weight -87 0.5;0.5;0.5;0.5;0.5;0.5;0.5;0.5;0.5;0.5 0
c p weight 88 0.5;0.5;0.5;0.5;0.5;0.5;0.5;0.5;0.5;0.5 0
c p weight -88 0.5;0.5;0.5;0.5;0.5;0.5;0.5;0.5;0.5;0.5 0
c p weight 89 0.5;0.5;0.5;0.5;0.5;0.5;0.5;0.5;0.5;0.5 0
c p weight -89 0.5;0.5;0.5;0.5;0.5;0.5;0.5;0.5;0.5;0.5 0
c p weight 90 0.5;0.5;0.5;0.5;0.5;0.5;0.5;0.5;0.5;0.5 0
c p weight -90 0.5;0.5;0.5;0.5;0.5;0.5;0.5;0.5;0.5;0.5 0
c p weight 91 1.0;1.0;1.0;1.0;1.0;1.0;1.0;1.0;1.0;1.0 0
c p weight -91 1.0;1.0;1.0;1.0;1.0;1.0;1.0;1.0;1.0;1.0 0
c p weight 92 1.0;1.0;1.0;1.0;1.0;1.0;1.0;1.0;1.0;1.0 0
c p weight -92 1.0;1.0;1.0;1.0;1.0;1.0;1.0;1.0;1.0;1.0 0
c p weight 93 1.0;1.0;1.0;1.0;1.0;1.0;1.0;1.0;1.0;1.0 0
c p weight -93 1.0;1.0;1.0;1.0;1.0;1.0;1.0;1.0;1.0;1.0 0
c p weight 94 1.0;1.0;1.0;1.0;1.0;1.0;1.0;1.0;1.0;1.0 0
c p weight -94 1.0;1.0;1.0;1.0;1.0;1.0;1.0;1.0;1.0;1.0 0
c p weight 95 1.0;1.0;1.0;1.0;1.0;1.0;1.0;1.0;1.0;1.0 0
c p weight -95 1.0;1.0;1.0;1.0;1.0;1.0;1.0;1.0;1.0;1.0 0
c p weight 96 1.0;1.0;1.0;1.0;1.0;1.0;1.0;1.0;1.0;1.0 0
c p weight -96 1.0;1.0;1.0;1.0;1.0;1.0;1.0;1.0;1.0;1.0 0
c p weight 97 1.0;1.0;1.0;1.0;1.0;1.0;1.0;1.0;1.0;1.0 0
c p weight -97 1.0;1.0;1.0;1.0;1.0;1.0;1.0;1.0;1.0;1.0 0
c p weight 98 1.0;1.0;1.0;1.0;1.0;1.0;1.0;1.0;1.0;1.0 0
c p weight -98 1.0;1.0;1.0;1.0;1.0;1.0;1.0;1.0;1.0;1.0 0
c p weight 99 1.0;1.0;1.0;1.0;1.0;1.0;1.0;1.0;1.0;1.0 0
c p weight -99 1.0;1.0;1.0;1.0;1.0;1.0;1.0;1.0;1.0;1.0 0
c p weight 100 1.0;1.0;1.0;1.0;1.0;1.0;1.0;1.0;1.0;1.0 0
c p weight -100 1.0;1.0;1.0;1.0;1.0;1.0;1.0;1.0;1.0;1.0 0
c p weight 101 1.0;1.0;1.0;1.0;1.0;1.0;1.0;1.0;1.0;1.0 0
c p weight -101 1.0;1.0;1.0;1.0;1.0;1.0;1.0;1.0;1.0;1.0 0
c p weight 102 1.0;1.0;1.0;1.0;1.0;1.0;1.0;1.0;1.0;1.0 0
c p weight -102 1.0;1.0;1.0;1.0;1.0;1.0;1.0;1.0;1.0;1.0 0
c p weight 103 1.0;1.0;1.0;1.0;1.0;1.0;1.0;1.0;1.0;1.0 0
c p weight -103 1.0;1.0;1.0;1.0;1.0;1.0;1.0;1.0;1.0;1.0 0
c p weight 104 1.0;1.0;1.0;1.0;1.0;1.0;1.0;1.0;1.0;1.0 0
c p weight -104 1.0;1.0;1.0;1.0;1.0;1.0;1.0;1.0;1.0;1.0 0
c p weight 105 1.0;1.0;1.0;1.0;1.0;1.0;1.0;1.0;1.0;1.0 0
c p weight -105 1.0;1.0;1.0;1.0;1.0;1.0;1.0;1.0;1.0;1.0 0
c p weight 106 1.0;1.0;1.0;1.0;1.0;1.0;1.0;1.0;1.0;1.0 0
c p weight -106 1.0;1.0;1.0;1.0;1.0;1.0;1.0;1.0;1.0;1.0 0
c p weight 107 1.0;1.0;1.0;1.0;1.0;1.0;1.0;1.0;1.0;1.0 0
c p weight -107 1.0;1.0;1.0;1.0;1.0;1.0;1.0;1.0;1.0;1.0 0
c p weight 108 1.0;1.0;1.0;1.0;1.0;1.0;1.0;1.0;1.0;1.0 0
c p weight -108 1.0;1.0;1.0;1.0;1.0;1.0;1.0;1.0;1.0;1.0 0
c p weight 109 1.0;1.0;1.0;1.0;1.0;1.0;1.0;1.0;1.0;1.0 0
c p weight -109 1.0;1.0;1.0;1.0;1.0;1.0;1.0;1.0;1.0;1.0 0
c p weight 110 1.0;1.0;1.0;1.0;1.0;1.0;1.0;1.0;1.0;1.0 0
c p weight -110 1.0;1.0;1.0;1.0;1.0;1.0;1.0;1.0;1.0;1.0 0
c p weight 111 1.0;1.0;1.0;1.0;1.0;1.0;1.0;1.0;1.0;1.0 0
c p weight -111 1.0;1.0;1.0;1.0;1.0;1.0;1.0;1.0;1.0;1.0 0
c p weight 112 1.0;1.0;1.0;1.0;1.0;1.0;1.0;1.0;1.0;1.0 0
c p weight -112 1.0;1.0;1.0;1.0;1.0;1.0;1.0;1.0;1.0;1.0 0
c p weight 113 1.0;1.0;1.0;1.0;1.0;1.0;1.0;1.0;1.0;1.0 0
c p weight -113 1.0;1.0;1.0;1.0;1.0;1.0;1.0;1.0;1.0;1.0 0
c p weight 114 1.0;1.0;1.0;1.0;1.0;1.0;1.0;1.0;1.0;1.0 0
c p weight -114 1.0;1.0;1.0;1.0;1.0;1.0;1.0;1.0;1.0;1.0 0
c p weight 115 1.0;1.0;1.0;1.0;1.0;1.0;1.0;1.0;1.0;1.0 0
c p weight -115 1.0;1.0;1.0;1.0;1.0;1.0;1.0;1.0;1.0;1.0 0
c p weight 116 1.0;1.0;1.0;1.0;1.0;1.0;1.0;1.0;1.0;1.0 0
c p weight -116 1.0;1.0;1.0;1.0;1.0;1.0;1.0;1.0;1.0;1.0 0
c p weight 117 1.0;1.0;1.0;1.0;1.0;1.0;1.0;1.0;1.0;1.0 0
c p weight -117 1.0;1.0;1.0;1.0;1.0;1.0;1.0;1.0;1.0;1.0 0
c p weight 118 1.0;1.0;1.0;1.0;1.0;1.0;1.0;1.0;1.0;1.0 0
c p weight -118 1.0;1.0;1.0;1.0;1.0;1.0;1.0;1.0;1.0;1.0 0
c p weight 119 1.0;1.0;1.0;1.0;1.0;1.0;1.0;1.0;1.0;1.0 0
c p weight -119 1.0;1.0;1.0;1.0;1.0;1.0;1.0;1.0;1.0;1.0 0
c p weight 120 1.0;1.0;1.0;1.0;1.0;1.0;1.0;1.0;1.0;1.0 0
c p weight -120 1.0;1.0;1.0;1.0;1.0;1.0;1.0;1.0;1.0;1.0 0
c p weight 121 1.0;1.0;1.0;1.0;1.0;1.0;1.0;1.0;1.0;1.0 0
c p weight -121 1.0;1.0;1.0;1.0;1.0;1.0;1.0;1.0;1.0;1.0 0
c p weight 122 1.0;1.0;1.0;1.0;1.0;1.0;1.0;1.0;1.0;1.0 0
c p weight -122 1.0;1.0;1.0;1.0;1.0;1.0;1.0;1.0;1.0;1.0 0
c p weight 123 1.0;1.0;1.0;1.0;1.0;1.0;1.0;1.0;1.0;1.0 0
c p weight -123 1.0;1.0;1.0;1.0;1.0;1.0;1.0;1.0;1.0;1.0 0
c p weight 124 1.0;1.0;1.0;1.0;1.0;1.0;1.0;1.0;1.0;1.0 0
c p weight -124 1.0;1.0;1.0;1.0;1.0;1.0;1.0;1.0;1.0;1.0 0
c p weight 125 1.0;1.0;1.0;1.0;1.0;1.0;1.0;1.0;1.0;1.0 0
c p weight -125 1.0;1.0;1.0;1.0;1.0;1.0;1.0;1.0;1.0;1.0 0
c p weight 126 1.0;1.0;1.0;1.0;1.0;1.0;1.0;1.0;1.0;1.0 0
c p weight -126 1.0;1.0;1.0;1.0;1.0;1.0;1.0;1.0;1.0;1.0 0
c p weight 127 1.0;1.0;1.0;1.0;1.0;1.0;1.0;1.0;1.0;1.0 0
c p weight -127 1.0;1.0;1.0;1.0;1.0;1.0;1.0;1.0;1.0;1.0 0
c p weight 128 1.0;1.0;1.0;1.0;1.0;1.0;1.0;1.0;1.0;1.0 0
c p weight -128 1.0;1.0;1.0;1.0;1.0;1.0;1.0;1.0;1.0;1.0 0
c p weight 129 1.0;1.0;1.0;1.0;1.0;1.0;1.0;1.0;1.0;1.0 0
c p weight -129 1.0;1.0;1.0;1.0;1.0;1.0;1.0;1.0;1.0;1.0 0
c p weight 130 1.0;1.0;1.0;1.0;1.0;1.0;1.0;1.0;1.0;1.0 0
c p weight -130 1.0;1.0;1.0;1.0;1.0;1.0;1.0;1.0;1.0;1.0 0
c p weight 131 1.0;1.0;1.0;1.0;1.0;1.0;1.0;1.0;1.0;1.0 0
c p weight -131 1.0;1.0;1.0;1.0;1.0;1.0;1.0;1.0;1.0;1.0 0
c p weight 132 1.0;1.0;1.0;1.0;1.0;1.0;1.0;1.0;1.0;1.0 0
c p weight -132 1.0;1.0;1.0;1.0;1.0;1.0;1.0;1.0;1.0;1.0 0
c p weight 133 1.0;1.0;1.0;1.0;1.0;1.0;1.0;1.0;1.0;1.0 0
c p weight -133 1.0;1.0;1.0;1.0;1.0;1.0;1.0;1.0;1.0;1.0 0
c p weight 134 1.0;1.0;1.0;1.0;1.0;1.0;1.0;1.0;1.0;1.0 0
c p weight -134 1.0;1.0;1.0;1.0;1.0;1.0;1.0;1.0;1.0;1.0 0
c p weight 135 1.0;1.0;1.0;1.0;1.0;1.0;1.0;1.0;1.0;1.0 0
c p weight -135 1.0;1.0;1.0;1.0;1.0;1.0;1.0;1.0;1.0;1.0 0
c p weight 136 1.0;1.0;1.0;1.0;1.0;1.0;1.0;1.0;1.0;1.0 0
c p weight -136 1.0;1.0;1.0;1.0;1.0;1.0;1.0;1.0;1.0;1.0 0
c p weight 137 1.0;1.0;1.0;1.0;1.0;1.0;1.0;1.0;1.0;1.0 0
c p weight -137 1.0;1.0;1.0;1.0;1.0;1.0;1.0;1.0;1.0;1.0 0
c p weight 138 1.0;1.0;1.0;1.0;1.0;1.0;1.0;1.0;1.0;1.0 0
c p weight -138 1.0;1.0;1.0;1.0;1.0;1.0;1.0;1.0;1.0;1.0 0
c p weight 139 1.0;1.0;1.0;1.0;1.0;1.0;1.0;1.0;1.0;1.0 0
c p weight -139 1.0;1.0;1.0;1.0;1.0;1.0;1.0;1.0;1.0;1.0 0
c p weight 140 1.0;1.0;1.0;1.0;1.0;1.0;1.0;1.0;1.0;1.0 0
c p weight -140 1.0;1.0;1.0;1.0;1.0;1.0;1.0;1.0;1.0;1.0 0
c p weight 141 1.0;1.0;1.0;1.0;1.0;1.0;1.0;1.0;1.0;1.0 0
c p weight -141 1.0;1.0;1.0;1.0;1.0;1.0;1.0;1.0;1.0;1.0 0
c p weight 142 1.0;1.0;1.0;1.0;1.0;1.0;1.0;1.0;1.0;1.0 0
c p weight -142 1.0;1.0;1.0;1.0;1.0;1.0;1.0;1.0;1.0;1.0 0
c p weight 143 1.0;1.0;1.0;1.0;1.0;1.0;1.0;1.0;1.0;1.0 0
c p weight -143 1.0;1.0;1.0;1.0;1.0;1.0;1.0;1.0;1.0;1.0 0
c p weight 144 1.0;1.0;1.0;1.0;1.0;1.0;1.0;1.0;1.0;1.0 0
c p weight -144 1.0;1.0;1.0;1.0;1.0;1.0;1.0;1.0;1.0;1.0 0
c p weight 145 1.0;1.0;1.0;1.0;1.0;1.0;1.0;1.0;1.0;1.0 0
c p weight -145 1.0;1.0;1.0;1.0;1.0;1.0;1.0;1.0;1.0;1.0 0
c p weight 146 1.0;1.0;1.0;1.0;1.0;1.0;1.0;1.0;1.0;1.0 0
c p weight -146 1.0;1.0;1.0;1.0;1.0;1.0;1.0;1.0;1.0;1.0 0
c p weight 147 1.0;1.0;1.0;1.0;1.0;1.0;1.0;1.0;1.0;1.0 0
c p weight -147 1.0;1.0;1.0;1.0;1.0;1.0;1.0;1.0;1.0;1.0 0
c p weight 148 1.0;1.0;1.0;1.0;1.0;1.0;1.0;1.0;1.0;1.0 0
c p weight -148 1.0;1.0;1.0;1.0;1.0;1.0;1.0;1.0;1.0;1.0 0
c p weight 149 1.0;1.0;1.0;1.0;1.0;1.0;1.0;1.0;1.0;1.0 0
c p weight -149 1.0;1.0;1.0;1.0;1.0;1.0;1.0;1.0;1.0;1.0 0
c p weight 150 1.0;1.0;1.0;1.0;1.0;1.0;1.0;1.0;1.0;1.0 0
c p weight -150 1.0;1.0;1.0;1.0;1.0;1.0;1.0;1.0;1.0;1.0 0
c p weight 151 1.0;1.0;1.0;1.0;1.0;1.0;1.0;1.0;1.0;1.0 0
c p weight -151 1.0;1.0;1.0;1.0;1.0;1.0;1.0;1.0;1.0;1.0 0
c p weight 152 1.0;1.0;1.0;1.0;1.0;1.0;1.0;1.0;1.0;1.0 0
c p weight -152 1.0;1.0;1.0;1.0;1.0;1.0;1.0;1.0;1.0;1.0 0
c p weight 153 1.0;1.0;1.0;1.0;1.0;1.0;1.0;1.0;1.0;1.0 0
c p weight -153 1.0;1.0;1.0;1.0;1.0;1.0;1.0;1.0;1.0;1.0 0
c p weight 154 1.0;1.0;1.0;1.0;1.0;1.0;1.0;1.0;1.0;1.0 0
c p weight -154 1.0;1.0;1.0;1.0;1.0;1.0;1.0;1.0;1.0;1.0 0
c p weight 155 1.0;1.0;1.0;1.0;1.0;1.0;1.0;1.0;1.0;1.0 0
c p weight -155 1.0;1.0;1.0;1.0;1.0;1.0;1.0;1.0;1.0;1.0 0
c p weight 156 1.0;1.0;1.0;1.0;1.0;1.0;1.0;1.0;1.0;1.0 0
c p weight -156 1.0;1.0;1.0;1.0;1.0;1.0;1.0;1.0;1.0;1.0 0
c p weight 157 1.0;1.0;1.0;1.0;1.0;1.0;1.0;1.0;1.0;1.0 0
c p weight -157 1.0;1.0;1.0;1.0;1.0;1.0;1.0;1.0;1.0;1.0 0
c p weight 158 1.0;1.0;1.0;1.0;1.0;1.0;1.0;1.0;1.0;1.0 0
c p weight -158 1.0;1.0;1.0;1.0;1.0;1.0;1.0;1.0;1.0;1.0 0
c p weight 159 1.0;1.0;1.0;1.0;1.0;1.0;1.0;1.0;1.0;1.0 0
c p weight -159 1.0;1.0;1.0;1.0;1.0;1.0;1.0;1.0;1.0;1.0 0
c p weight 160 1.0;1.0;1.0;1.0;1.0;1.0;1.0;1.0;1.0;1.0 0
c p weight -160 1.0;1.0;1.0;1.0;1.0;1.0;1.0;1.0;1.0;1.0 0
c p weight 161 1.0;1.0;1.0;1.0;1.0;1.0;1.0;1.0;1.0;1.0 0
c p weight -161 1.0;1.0;1.0;1.0;1.0;1.0;1.0;1.0;1.0;1.0 0
c p weight 162 1.0;1.0;1.0;1.0;1.0;1.0;1.0;1.0;1.0;1.0 0
c p weight -162 1.0;1.0;1.0;1.0;1.0;1.0;1.0;1.0;1.0;1.0 0
c p weight 163 1.0;1.0;1.0;1.0;1.0;1.0;1.0;1.0;1.0;1.0 0
c p weight -163 1.0;1.0;1.0;1.0;1.0;1.0;1.0;1.0;1.0;1.0 0
c p weight 164 1.0;1.0;1.0;1.0;1.0;1.0;1.0;1.0;1.0;1.0 0
c p weight -164 1.0;1.0;1.0;1.0;1.0;1.0;1.0;1.0;1.0;1.0 0
c p weight 165 1.0;1.0;1.0;1.0;1.0;1.0;1.0;1.0;1.0;1.0 0
c p weight -165 1.0;1.0;1.0;1.0;1.0;1.0;1.0;1.0;1.0;1.0 0
c p weight 166 1.0;1.0;1.0;1.0;1.0;1.0;1.0;1.0;1.0;1.0 0
c p weight -166 1.0;1.0;1.0;1.0;1.0;1.0;1.0;1.0;1.0;1.0 0
c p weight 167 1.0;1.0;1.0;1.0;1.0;1.0;1.0;1.0;1.0;1.0 0
c p weight -167 1.0;1.0;1.0;1.0;1.0;1.0;1.0;1.0;1.0;1.0 0
c p weight 168 1.0;1.0;1.0;1.0;1.0;1.0;1.0;1.0;1.0;1.0 0
c p weight -168 1.0;1.0;1.0;1.0;1.0;1.0;1.0;1.0;1.0;1.0 0
c p weight 169 1.0;1.0;1.0;1.0;1.0;1.0;1.0;1.0;1.0;1.0 0
c p weight -169 1.0;1.0;1.0;1.0;1.0;1.0;1.0;1.0;1.0;1.0 0
c p weight 170 1.0;1.0;1.0;1.0;1.0;1.0;1.0;1.0;1.0;1.0 0
c p weight -170 1.0;1.0;1.0;1.0;1.0;1.0;1.0;1.0;1.0;1.0 0
c p weight 171 1.0;1.0;1.0;1.0;1.0;1.0;1.0;1.0;1.0;1.0 0
c p weight -171 1.0;1.0;1.0;1.0;1.0;1.0;1.0;1.0;1.0;1.0 0
c p weight 172 1.0;1.0;1.0;1.0;1.0;1.0;1.0;1.0;1.0;1.0 0
c p weight -172 1.0;1.0;1.0;1.0;1.0;1.0;1.0;1.0;1.0;1.0 0
c p weight 173 1.0;1.0;1.0;1.0;1.0;1.0;1.0;1.0;1.0;1.0 0
c p weight -173 1.0;1.0;1.0;1.0;1.0;1.0;1.0;1.0;1.0;1.0 0
c p weight 174 1.0;1.0;1.0;1.0;1.0;1.0;1.0;1.0;1.0;1.0 0
c p weight -174 1.0;1.0;1.0;1.0;1.0;1.0;1.0;1.0;1.0;1.0 0
c p weight 175 1.0;1.0;1.0;1.0;1.0;1.0;1.0;1.0;1.0;1.0 0
c p weight -175 1.0;1.0;1.0;1.0;1.0;1.0;1.0;1.0;1.0;1.0 0
c p weight 176 1.0;1.0;1.0;1.0;1.0;1.0;1.0;1.0;1.0;1.0 0
c p weight -176 1.0;1.0;1.0;1.0;1.0;1.0;1.0;1.0;1.0;1.0 0
c p weight 177 1.0;1.0;1.0;1.0;1.0;1.0;1.0;1.0;1.0;1.0 0
c p weight -177 1.0;1.0;1.0;1.0;1.0;1.0;1.0;1.0;1.0;1.0 0
c p weight 178 1.0;1.0;1.0;1.0;1.0;1.0;1.0;1.0;1.0;1.0 0
c p weight -178 1.0;1.0;1.0;1.0;1.0;1.0;1.0;1.0;1.0;1.0 0
c p weight 179 1.0;1.0;1.0;1.0;1.0;1.0;1.0;1.0;1.0;1.0 0
c p weight -179 1.0;1.0;1.0;1.0;1.0;1.0;1.0;1.0;1.0;1.0 0
c p weight 180 1.0;1.0;1.0;1.0;1.0;1.0;1.0;1.0;1.0;1.0 0
c p weight -180 1.0;1.0;1.0;1.0;1.0;1.0;1.0;1.0;1.0;1.0 0
c p weight 181 1.0;1.0;1.0;1.0;1.0;1.0;1.0;1.0;1.0;1.0 0
c p weight -181 1.0;1.0;1.0;1.0;1.0;1.0;1.0;1.0;1.0;1.0 0
c p weight 182 1.0;1.0;1.0;1.0;1.0;1.0;1.0;1.0;1.0;1.0 0
c p weight -182 1.0;1.0;1.0;1.0;1.0;1.0;1.0;1.0;1.0;1.0 0
c p weight 183 1.0;1.0;1.0;1.0;1.0;1.0;1.0;1.0;1.0;1.0 0
c p weight -183 1.0;1.0;1.0;1.0;1.0;1.0;1.0;1.0;1.0;1.0 0
c p weight 184 1.0;1.0;1.0;1.0;1.0;1.0;1.0;1.0;1.0;1.0 0
c p weight -184 1.0;1.0;1.0;1.0;1.0;1.0;1.0;1.0;1.0;1.0 0
c p weight 185 1.0;1.0;1.0;1.0;1.0;1.0;1.0;1.0;1.0;1.0 0
c p weight -185 1.0;1.0;1.0;1.0;1.0;1.0;1.0;1.0;1.0;1.0 0
c p weight 186 1.0;1.0;1.0;1.0;1.0;1.0;1.0;1.0;1.0;1.0 0
c p weight -186 1.0;1.0;1.0;1.0;1.0;1.0;1.0;1.0;1.0;1.0 0
c p weight 187 1.0;1.0;1.0;1.0;1.0;1.0;1.0;1.0;1.0;1.0 0
c p weight -187 1.0;1.0;1.0;1.0;1.0;1.0;1.0;1.0;1.0;1.0 0
c p weight 188 1.0;1.0;1.0;1.0;1.0;1.0;1.0;1.0;1.0;1.0 0
c p weight -188 1.0;1.0;1.0;1.0;1.0;1.0;1.0;1.0;1.0;1.0 0
c p weight 189 1.0;1.0;1.0;1.0;1.0;1.0;1.0;1.0;1.0;1.0 0
c p weight -189 1.0;1.0;1.0;1.0;1.0;1.0;1.0;1.0;1.0;1.0 0
c p weight 190 1.0;1.0;1.0;1.0;1.0;1.0;1.0;1.0;1.0;1.0 0
c p weight -190 1.0;1.0;1.0;1.0;1.0;1.0;1.0;1.0;1.0;1.0 0
c p weight 191 1.0;1.0;1.0;1.0;1.0;1.0;1.0;1.0;1.0;1.0 0
c p weight -191 1.0;1.0;1.0;1.0;1.0;1.0;1.0;1.0;1.0;1.0 0
c p weight 192 1.0;1.0;1.0;1.0;1.0;1.0;1.0;1.0;1.0;1.0 0
c p weight -192 1.0;1.0;1.0;1.0;1.0;1.0;1.0;1.0;1.0;1.0 0
c p weight 193 1.0;1.0;1.0;1.0;1.0;1.0;1.0;1.0;1.0;1.0 0
c p weight -193 1.0;1.0;1.0;1.0;1.0;1.0;1.0;1.0;1.0;1.0 0
c p weight 194 1.0;1.0;1.0;1.0;1.0;1.0;1.0;1.0;1.0;1.0 0
c p weight -194 1.0;1.0;1.0;1.0;1.0;1.0;1.0;1.0;1.0;1.0 0
c p weight 195 1.0;1.0;1.0;1.0;1.0;1.0;1.0;1.0;1.0;1.0 0
c p weight -195 1.0;1.0;1.0;1.0;1.0;1.0;1.0;1.0;1.0;1.0 0
c p weight 196 1.0;1.0;1.0;1.0;1.0;1.0;1.0;1.0;1.0;1.0 0
c p weight -196 1.0;1.0;1.0;1.0;1.0;1.0;1.0;1.0;1.0;1.0 0
c p weight 197 1.0;1.0;1.0;1.0;1.0;1.0;1.0;1.0;1.0;1.0 0
c p weight -197 1.0;1.0;1.0;1.0;1.0;1.0;1.0;1.0;1.0;1.0 0
c p weight 198 1.0;1.0;1.0;1.0;1.0;1.0;1.0;1.0;1.0;1.0 0
c p weight -198 1.0;1.0;1.0;1.0;1.0;1.0;1.0;1.0;1.0;1.0 0
c p weight 199 1.0;1.0;1.0;1.0;1.0;1.0;1.0;1.0;1.0;1.0 0
c p weight -199 1.0;1.0;1.0;1.0;1.0;1.0;1.0;1.0;1.0;1.0 0
c p weight 200 1.0;1.0;1.0;1.0;1.0;1.0;1.0;1.0;1.0;1.0 0
c p weight -200 1.0;1.0;1.0;1.0;1.0;1.0;1.0;1.0;1.0;1.0 0
c p weight 201 1.0;1.0;1.0;1.0;1.0;1.0;1.0;1.0;1.0;1.0 0
c p weight -201 1.0;1.0;1.0;1.0;1.0;1.0;1.0;1.0;1.0;1.0 0
c p weight 202 1.0;1.0;1.0;1.0;1.0;1.0;1.0;1.0;1.0;1.0 0
c p weight -202 1.0;1.0;1.0;1.0;1.0;1.0;1.0;1.0;1.0;1.0 0
c p weight 203 1.0;1.0;1.0;1.0;1.0;1.0;1.0;1.0;1.0;1.0 0
c p weight -203 1.0;1.0;1.0;1.0;1.0;1.0;1.0;1.0;1.0;1.0 0
c p weight 204 1.0;1.0;1.0;1.0;1.0;1.0;1.0;1.0;1.0;1.0 0
c p weight -204 1.0;1.0;1.0;1.0;1.0;1.0;1.0;1.0;1.0;1.0 0
c p weight 205 1.0;1.0;1.0;1.0;1.0;1.0;1.0;1.0;1.0;1.0 0
c p weight -205 1.0;1.0;1.0;1.0;1.0;1.0;1.0;1.0;1.0;1.0 0
c p weight 206 1.0;1.0;1.0;1.0;1.0;1.0;1.0;1.0;1.0;1.0 0
c p weight -206 1.0;1.0;1.0;1.0;1.0;1.0;1.0;1.0;1.0;1.0 0
c p weight 207 1.0;1.0;1.0;1.0;1.0;1.0;1.0;1.0;1.0;1.0 0
c p weight -207 1.0;1.0;1.0;1.0;1.0;1.0;1.0;1.0;1.0;1.0 0
c p weight 208 1.0;1.0;1.0;1.0;1.0;1.0;1.0;1.0;1.0;1.0 0
c p weight -208 1.0;1.0;1.0;1.0;1.0;1.0;1.0;1.0;1.0;1.0 0
c p weight 209 1.0;1.0;1.0;1.0;1.0;1.0;1.0;1.0;1.0;1.0 0
c p weight -209 1.0;1.0;1.0;1.0;1.0;1.0;1.0;1.0;1.0;1.0 0
c p weight 210 1.0;1.0;1.0;1.0;1.0;1.0;1.0;1.0;1.0;1.0 0
c p weight -210 1.0;1.0;1.0;1.0;1.0;1.0;1.0;1.0;1.0;1.0 0
c p weight 211 1.0;1.0;1.0;1.0;1.0;1.0;1.0;1.0;1.0;1.0 0
c p weight -211 1.0;1.0;1.0;1.0;1.0;1.0;1.0;1.0;1.0;1.0 0
c p weight 212 1.0;1.0;1.0;1.0;1.0;1.0;1.0;1.0;1.0;1.0 0
c p weight -212 1.0;1.0;1.0;1.0;1.0;1.0;1.0;1.0;1.0;1.0 0
c p weight 213 1.0;1.0;1.0;1.0;1.0;1.0;1.0;1.0;1.0;1.0 0
c p weight -213 1.0;1.0;1.0;1.0;1.0;1.0;1.0;1.0;1.0;1.0 0
c p weight 214 1.0;1.0;1.0;1.0;1.0;1.0;1.0;1.0;1.0;1.0 0
c p weight -214 1.0;1.0;1.0;1.0;1.0;1.0;1.0;1.0;1.0;1.0 0
c p weight 215 1.0;1.0;1.0;1.0;1.0;1.0;1.0;1.0;1.0;1.0 0
c p weight -215 1.0;1.0;1.0;1.0;1.0;1.0;1.0;1.0;1.0;1.0 0
c p weight 216 1.0;1.0;1.0;1.0;1.0;1.0;1.0;1.0;1.0;1.0 0
c p weight -216 1.0;1.0;1.0;1.0;1.0;1.0;1.0;1.0;1.0;1.0 0
c p weight 217 1.0;1.0;1.0;1.0;1.0;1.0;1.0;1.0;1.0;1.0 0
c p weight -217 1.0;1.0;1.0;1.0;1.0;1.0;1.0;1.0;1.0;1.0 0
c p weight 218 1.0;1.0;1.0;1.0;1.0;1.0;1.0;1.0;1.0;1.0 0
c p weight -218 1.0;1.0;1.0;1.0;1.0;1.0;1.0;1.0;1.0;1.0 0
c p weight 219 1.0;1.0;1.0;1.0;1.0;1.0;1.0;1.0;1.0;1.0 0
c p weight -219 1.0;1.0;1.0;1.0;1.0;1.0;1.0;1.0;1.0;1.0 0
c p weight 220 1.0;1.0;1.0;1.0;1.0;1.0;1.0;1.0;1.0;1.0 0
c p weight -220 1.0;1.0;1.0;1.0;1.0;1.0;1.0;1.0;1.0;1.0 0
c p weight 221 1.0;1.0;1.0;1.0;1.0;1.0;1.0;1.0;1.0;1.0 0
c p weight -221 1.0;1.0;1.0;1.0;1.0;1.0;1.0;1.0;1.0;1.0 0
c p weight 222 1.0;1.0;1.0;1.0;1.0;1.0;1.0;1.0;1.0;1.0 0
c p weight -222 1.0;1.0;1.0;1.0;1.0;1.0;1.0;1.0;1.0;1.0 0
c p weight 223 1.0;1.0;1.0;1.0;1.0;1.0;1.0;1.0;1.0;1.0 0
c p weight -223 1.0;1.0;1.0;1.0;1.0;1.0;1.0;1.0;1.0;1.0 0
c p weight 224 1.0;1.0;1.0;1.0;1.0;1.0;1.0;1.0;1.0;1.0 0
c p weight -224 1.0;1.0;1.0;1.0;1.0;1.0;1.0;1.0;1.0;1.0 0
c p weight 225 1.0;1.0;1.0;1.0;1.0;1.0;1.0;1.0;1.0;1.0 0
c p weight -225 1.0;1.0;1.0;1.0;1.0;1.0;1.0;1.0;1.0;1.0 0
c p weight 226 1.0;1.0;1.0;1.0;1.0;1.0;1.0;1.0;1.0;1.0 0
c p weight -226 1.0;1.0;1.0;1.0;1.0;1.0;1.0;1.0;1.0;1.0 0
c p weight 227 1.0;1.0;1.0;1.0;1.0;1.0;1.0;1.0;1.0;1.0 0
c p weight -227 1.0;1.0;1.0;1.0;1.0;1.0;1.0;1.0;1.0;1.0 0
c p weight 228 1.0;1.0;1.0;1.0;1.0;1.0;1.0;1.0;1.0;1.0 0
c p weight -228 1.0;1.0;1.0;1.0;1.0;1.0;1.0;1.0;1.0;1.0 0
c p weight 229 1.0;1.0;1.0;1.0;1.0;1.0;1.0;1.0;1.0;1.0 0
c p weight -229 1.0;1.0;1.0;1.0;1.0;1.0;1.0;1.0;1.0;1.0 0
c p weight 230 1.0;1.0;1.0;1.0;1.0;1.0;1.0;1.0;1.0;1.0 0
c p weight -230 1.0;1.0;1.0;1.0;1.0;1.0;1.0;1.0;1.0;1.0 0
c p weight 231 1.0;1.0;1.0;1.0;1.0;1.0;1.0;1.0;1.0;1.0 0
c p weight -231 1.0;1.0;1.0;1.0;1.0;1.0;1.0;1.0;1.0;1.0 0
c p weight 232 1.0;1.0;1.0;1.0;1.0;1.0;1.0;1.0;1.0;1.0 0
c p weight -232 1.0;1.0;1.0;1.0;1.0;1.0;1.0;1.0;1.0;1.0 0
c p weight 233 1.0;1.0;1.0;1.0;1.0;1.0;1.0;1.0;1.0;1.0 0
c p weight -233 1.0;1.0;1.0;1.0;1.0;1.0;1.0;1.0;1.0;1.0 0
c p weight 234 1.0;1.0;1.0;1.0;1.0;1.0;1.0;1.0;1.0;1.0 0
c p weight -234 1.0;1.0;1.0;1.0;1.0;1.0;1.0;1.0;1.0;1.0 0
c p weight 235 1.0;1.0;1.0;1.0;1.0;1.0;1.0;1.0;1.0;1.0 0
c p weight -235 1.0;1.0;1.0;1.0;1.0;1.0;1.0;1.0;1.0;1.0 0
c p weight 236 1.0;1.0;1.0;1.0;1.0;1.0;1.0;1.0;1.0;1.0 0
c p weight -236 1.0;1.0;1.0;1.0;1.0;1.0;1.0;1.0;1.0;1.0 0
c p weight 237 1.0;1.0;1.0;1.0;1.0;1.0;1.0;1.0;1.0;1.0 0
c p weight -237 1.0;1.0;1.0;1.0;1.0;1.0;1.0;1.0;1.0;1.0 0
c p weight 238 1.0;1.0;1.0;1.0;1.0;1.0;1.0;1.0;1.0;1.0 0
c p weight -238 1.0;1.0;1.0;1.0;1.0;1.0;1.0;1.0;1.0;1.0 0
c p weight 239 1.0;1.0;1.0;1.0;1.0;1.0;1.0;1.0;1.0;1.0 0
c p weight -239 1.0;1.0;1.0;1.0;1.0;1.0;1.0;1.0;1.0;1.0 0
c p weight 240 1.0;1.0;1.0;1.0;1.0;1.0;1.0;1.0;1.0;1.0 0
c p weight -240 1.0;1.0;1.0;1.0;1.0;1.0;1.0;1.0;1.0;1.0 0
c p weight 241 1.0;1.0;1.0;1.0;1.0;1.0;1.0;1.0;1.0;1.0 0
c p weight -241 1.0;1.0;1.0;1.0;1.0;1.0;1.0;1.0;1.0;1.0 0
c p weight 242 1.0;1.0;1.0;1.0;1.0;1.0;1.0;1.0;1.0;1.0 0
c p weight -242 1.0;1.0;1.0;1.0;1.0;1.0;1.0;1.0;1.0;1.0 0
c p weight 243 1.0;1.0;1.0;1.0;1.0;1.0;1.0;1.0;1.0;1.0 0
c p weight -243 1.0;1.0;1.0;1.0;1.0;1.0;1.0;1.0;1.0;1.0 0
c p weight 244 1.0;1.0;1.0;1.0;1.0;1.0;1.0;1.0;1.0;1.0 0
c p weight -244 1.0;1.0;1.0;1.0;1.0;1.0;1.0;1.0;1.0;1.0 0
c p weight 245 1.0;1.0;1.0;1.0;1.0;1.0;1.0;1.0;1.0;1.0 0
c p weight -245 1.0;1.0;1.0;1.0;1.0;1.0;1.0;1.0;1.0;1.0 0
c p weight 246 1.0;1.0;1.0;1.0;1.0;1.0;1.0;1.0;1.0;1.0 0
c p weight -246 1.0;1.0;1.0;1.0;1.0;1.0;1.0;1.0;1.0;1.0 0
c p weight 247 1.0;1.0;1.0;1.0;1.0;1.0;1.0;1.0;1.0;1.0 0
c p weight -247 1.0;1.0;1.0;1.0;1.0;1.0;1.0;1.0;1.0;1.0 0
c p weight 248 1.0;1.0;1.0;1.0;1.0;1.0;1.0;1.0;1.0;1.0 0
c p weight -248 1.0;1.0;1.0;1.0;1.0;1.0;1.0;1.0;1.0;1.0 0
c p weight 249 1.0;1.0;1.0;1.0;1.0;1.0;1.0;1.0;1.0;1.0 0
c p weight -249 1.0;1.0;1.0;1.0;1.0;1.0;1.0;1.0;1.0;1.0 0
c p weight 250 1.0;1.0;1.0;1.0;1.0;1.0;1.0;1.0;1.0;1.0 0
c p weight -250 1.0;1.0;1.0;1.0;1.0;1.0;1.0;1.0;1.0;1.0 0
c p weight 251 1.0;1.0;1.0;1.0;1.0;1.0;1.0;1.0;1.0;1.0 0
c p weight -251 1.0;1.0;1.0;1.0;1.0;1.0;1.0;1.0;1.0;1.0 0
c p weight 252 1.0;1.0;1.0;1.0;1.0;1.0;1.0;1.0;1.0;1.0 0
c p weight -252 1.0;1.0;1.0;1.0;1.0;1.0;1.0;1.0;1.0;1.0 0
c p weight 253 1.0;1.0;1.0;1.0;1.0;1.0;1.0;1.0;1.0;1.0 0
c p weight -253 1.0;1.0;1.0;1.0;1.0;1.0;1.0;1.0;1.0;1.0 0
c p weight 254 1.0;1.0;1.0;1.0;1.0;1.0;1.0;1.0;1.0;1.0 0
c p weight -254 1.0;1.0;1.0;1.0;1.0;1.0;1.0;1.0;1.0;1.0 0
c p weight 255 1.0;1.0;1.0;1.0;1.0;1.0;1.0;1.0;1.0;1.0 0
c p weight -255 1.0;1.0;1.0;1.0;1.0;1.0;1.0;1.0;1.0;1.0 0
c p weight 256 1.0;1.0;1.0;1.0;1.0;1.0;1.0;1.0;1.0;1.0 0
c p weight -256 1.0;1.0;1.0;1.0;1.0;1.0;1.0;1.0;1.0;1.0 0
c p weight 257 1.0;1.0;1.0;1.0;1.0;1.0;1.0;1.0;1.0;1.0 0
c p weight -257 1.0;1.0;1.0;1.0;1.0;1.0;1.0;1.0;1.0;1.0 0
c p weight 258 1.0;1.0;1.0;1.0;1.0;1.0;1.0;1.0;1.0;1.0 0
c p weight -258 1.0;1.0;1.0;1.0;1.0;1.0;1.0;1.0;1.0;1.0 0
c p weight 259 1.0;1.0;1.0;1.0;1.0;1.0;1.0;1.0;1.0;1.0 0
c p weight -259 1.0;1.0;1.0;1.0;1.0;1.0;1.0;1.0;1.0;1.0 0
c p weight 260 1.0;1.0;1.0;1.0;1.0;1.0;1.0;1.0;1.0;1.0 0
c p weight -260 1.0;1.0;1.0;1.0;1.0;1.0;1.0;1.0;1.0;1.0 0
c p weight 261 1.0;1.0;1.0;1.0;1.0;1.0;1.0;1.0;1.0;1.0 0
c p weight -261 1.0;1.0;1.0;1.0;1.0;1.0;1.0;1.0;1.0;1.0 0
c p weight 262 1.0;1.0;1.0;1.0;1.0;1.0;1.0;1.0;1.0;1.0 0
c p weight -262 1.0;1.0;1.0;1.0;1.0;1.0;1.0;1.0;1.0;1.0 0
c p weight 263 1.0;1.0;1.0;1.0;1.0;1.0;1.0;1.0;1.0;1.0 0
c p weight -263 1.0;1.0;1.0;1.0;1.0;1.0;1.0;1.0;1.0;1.0 0
c p weight 264 1.0;1.0;1.0;1.0;1.0;1.0;1.0;1.0;1.0;1.0 0
c p weight -264 1.0;1.0;1.0;1.0;1.0;1.0;1.0;1.0;1.0;1.0 0
c p weight 265 1.0;1.0;1.0;1.0;1.0;1.0;1.0;1.0;1.0;1.0 0
c p weight -265 1.0;1.0;1.0;1.0;1.0;1.0;1.0;1.0;1.0;1.0 0
c p weight 266 1.0;1.0;1.0;1.0;1.0;1.0;1.0;1.0;1.0;1.0 0
c p weight -266 1.0;1.0;1.0;1.0;1.0;1.0;1.0;1.0;1.0;1.0 0
c p semirings aspmc.semirings.probabilistic 0
c p quantify 1 2 3 4 5 6 7 8 9 10 11 12 13 14 15 16 17 18 19 20 21 22 23 24 25 26 27 28 29 30 31 32 33 34 35 36 37 38 39 40 41 42 43 44 45 46 47 48 49 50 51 52 53 54 55 56 57 58 59 60 61 62 63 64 65 66 67 68 69 70 71 72 73 74 75 76 77 78 79 80 81 82 83 84 85 86 87 88 89 90 91 92 93 94 95 96 97 98 99 100 101 102 103 104 105 106 107 108 109 110 111 112 113 114 115 116 117 118 119 120 121 122 123 124 125 126 127 128 129 130 131 132 133 134 135 136 137 138 139 140 141 142 143 144 145 146 147 148 149 150 151 152 153 154 155 156 157 158 159 160 161 162 163 164 165 166 167 168 169 170 171 172 173 174 175 176 177 178 179 180 181 182 183 184 185 186 187 188 189 190 191 192 193 194 195 196 197 198 199 200 201 202 203 204 205 206 207 208 209 210 211 212 213 214 215 216 217 218 219 220 221 222 223 224 225 226 227 228 229 230 231 232 233 234 235 236 237 238 239 240 241 242 243 244 245 246 247 248 249 250 251 252 253 254 255 256 257 258 259 260 261 262 263 264 265 266 0
c p auxilliary 1 2 3 4 5 6 7 8 9 10 11 12 13 14 15 16 17 18 19 20 21 22 23 24 25 26 27 28 29 30 31 32 33 34 35 36 37 38 39 40 91 92 93 94 95 96 97 98 99 100 101 102 103 104 105 106 107 108 109 110 111 112 113 114 115 116 117 118 119 120 121 122 123 124 125 126 127 128 129 130 131 132 133 134 135 136 137 138 139 140 141 142 143 144 145 146 147 148 149 150 151 152 153 154 155 156 157 158 159 160 161 162 163 164 165 166 167 168 169 170 171 172 173 174 175 176 177 178 179 180 181 182 183 184 185 186 187 188 189 190 191 192 193 194 195 196 197 198 199 200 201 202 203 204 205 206 207 208 209 210 211 212 213 214 215 216 217 218 219 220 221 222 223 224 225 226 227 228 229 230 231 232 233 234 235 236 237 238 239 240 241 242 243 244 245 246 247 248 249 250 251 252 253 254 255 256 257 258 259 260 261 262 263 264 265 266 0
